# Solution for model GasLib-40
# Objective value = 4.3590906972733919e+01
loadshed[innode_1] 0
loadshed[innode_2] 0
loadshed[innode_3] 0
loadshed[innode_4] 0
loadshed[innode_5] 0
loadshed[innode_6] 0
loadshed[innode_7] 0
loadshed[innode_8] 0
loadshed[source_1] -1.4423220934277015e-01
loadshed[source_2] 1.9712141164839991e-02
loadshed[source_3] 4.0025433587274428e-01
loadshed[sink_1] 0
loadshed[sink_2] 0
loadshed[sink_3] 0
loadshed[sink_4] 0
loadshed[sink_5] 0
loadshed[sink_6] 0
loadshed[sink_7] 0
loadshed[sink_8] 0
loadshed[sink_9] 0
loadshed[sink_10] 0
loadshed[sink_11] 0
loadshed[sink_12] 1
loadshed[sink_13] 0
loadshed[sink_14] 0
loadshed[sink_15] 0
loadshed[sink_16] 0
loadshed[sink_17] 0
loadshed[sink_18] 0
loadshed[sink_19] 0
loadshed[sink_20] 0
loadshed[sink_21] 1
loadshed[sink_22] 0
loadshed[sink_23] 0
loadshed[sink_24] 6.6543125438373008e-01
loadshed[sink_25] 0
loadshed[sink_26] 0
loadshed[sink_27] 0
loadshed[sink_28] 0
loadshed[sink_29] 0
flow[source_1,sink_3] 1.8089198781727890e+02
flow[innode_1,sink_16] 1.6354166666666970e+01
flow[innode_6,sink_13] 1.9665208028770927e+01
flow[sink_13,sink_14] 3.3110413621042589e+00
flow[sink_14,sink_10] -1.3043125304562409e+01
flow[sink_25,sink_26] 1.2241256681537618e+02
flow[sink_26,sink_9] 1.6354166666669244e+01
flow[sink_9,sink_18] 0
flow[sink_26,sink_4] 8.9704233482040308e+01
flow[sink_4,sink_20] -1.5261358913229856e+01
flow[sink_18,sink_6] -1.6354166666667879e+01
flow[sink_25,innode_8] -1.4818365448394252e+02
flow[sink_6,sink_7] -6.5416666666666671e+01
flow[sink_6,sink_22] 3.2708333333333641e+01
flow[sink_7,sink_24] 5.4715930272660795e+00
flow[sink_22,sink_1] 1.6354166666666970e+01
flow[sink_24,sink_21] 0
flow[sink_21,sink_12] 0
flow[sink_7,sink_5] -8.7242426360600930e+01
flow[sink_5,sink_17] -1.0359659302726760e+02
flow[sink_17,sink_4] -8.8611425728603479e+01
flow[sink_17,sink_8] -3.1339333965330770e+01
flow[sink_3,sink_23] 16.3541666666697
flow[sink_8,sink_20] -4.7693500631997438e+01
flow[sink_25,sink_20] 7.9309026211893979e+01
flow[sink_25,sink_15] -8.9557313238765573e+01
flow[sink_15,sink_29] -5.9470334262480606e+01
flow[sink_29,sink_28] 1.6354166666667879e+01
flow[sink_29,sink_2] 6.2795312309618339e+01
flow[sink_2,sink_15] 4.6441145642951710e+01
flow[sink_29,innode_7] -1.5497397990543345e+02
flow[innode_4,sink_19] 0
flow[sink_19,innode_3] 0
flow[innode_4,innode_5] 9.4813958637895666e+01
flow[sink_27,innode_5] -9.4813958637895666e+01
flow[sink_27,sink_19] 7.8459791971229080e+01
flow[sink_10,sink_11] 3.2708333333333641e+01
flow[sink_10,innode_2] -6.2105625304562409e+01
flow[sink_10,innode_3] 0
flow[innode_6,sink_25] -1.9665208028770927e+01
flow[sink_11,innode_1] 1.6354166666666970e+01
flow[sink_19,innode_2] 6.2105625304562409e+01
flow[source_3,innode_4] 9.4813958637895666e+01
flow[source_2,innode_7] 1.5497397990543345e+02
flow[sink_3,innode_8] 1.4818365448394252e+02
pressure[innode_1] 7.5042450485710546e+01
pressure[innode_2] 7.8476690595293562e+01
pressure[innode_3] 7.8476690595293562e+01
pressure[innode_4] 81.01325
pressure[innode_5] 8.0948031959693338e+01
pressure[innode_6] 74.6915666769174
pressure[innode_7] 81.01325
pressure[innode_8] 80.4085971879709
pressure[source_1] 81.01325
pressure[source_2] 81.01325
pressure[source_3] 81.01325
pressure[sink_1] 4.2787238075654734e+00
pressure[sink_2] 7.5277627017787452e+01
pressure[sink_3] 80.4085971879709
pressure[sink_4] 54.6648930751972
pressure[sink_5] 4.3561259208145088e+01
pressure[sink_6] 6.3798014179528471e+00
pressure[sink_7] 7.2778163215530380e+00
pressure[sink_8] 5.2460971059093893e+01
pressure[sink_9] 6.5091282401081870e+01
pressure[sink_10] 7.5194151793314091e+01
pressure[sink_11] 7.5042450485710546e+01
pressure[sink_12] 1.01325
pressure[sink_13] 7.4583155671416350e+01
pressure[sink_14] 74.5772302808605
pressure[sink_15] 7.5126006912726865e+01
pressure[sink_16] 7.4020800650892866e+01
pressure[sink_17] 5.1278456570994408e+01
pressure[sink_18] 5.9430964751996074e+00
pressure[sink_19] 7.8476690595293562e+01
pressure[sink_20] 55.7845373265178
pressure[sink_21] 1.01325
pressure[sink_22] 5.3424929499204836e+00
pressure[sink_23] 8.0243879176311111e+01
pressure[sink_24] 1.01325
pressure[sink_25] 74.6915666769174
pressure[sink_26] 6.6070121485024288e+01
pressure[sink_27] 8.0161251300356440e+01
pressure[sink_28] 7.6573020873781246e+01
pressure[sink_29] 7.6868303147398436e+01
interdiction[source_1,sink_3] 0
interdiction[innode_1,sink_16] 0
interdiction[innode_6,sink_13] 0
interdiction[sink_13,sink_14] 0
interdiction[sink_14,sink_10] 0
interdiction[sink_25,sink_26] 0
interdiction[sink_26,sink_9] 0
interdiction[sink_9,sink_18] 1
interdiction[sink_26,sink_4] 0
interdiction[sink_4,sink_20] 0
interdiction[sink_18,sink_6] 0
interdiction[sink_25,innode_8] 0
interdiction[sink_6,sink_7] 0
interdiction[sink_6,sink_22] 0
interdiction[sink_7,sink_24] 0
interdiction[sink_22,sink_1] 0
interdiction[sink_24,sink_21] 0
interdiction[sink_21,sink_12] 0
interdiction[sink_7,sink_5] 0
interdiction[sink_5,sink_17] 0
interdiction[sink_17,sink_4] 0
interdiction[sink_17,sink_8] 0
interdiction[sink_3,sink_23] 0
interdiction[sink_8,sink_20] 0
interdiction[sink_25,sink_20] 0
interdiction[sink_25,sink_15] 0
interdiction[sink_15,sink_29] 0
interdiction[sink_29,sink_28] 0
interdiction[sink_29,sink_2] 0
interdiction[sink_2,sink_15] 0
interdiction[sink_29,innode_7] 0
interdiction[innode_4,sink_19] 1
interdiction[sink_19,innode_3] 0
interdiction[innode_4,innode_5] 0
interdiction[sink_27,innode_5] 0
interdiction[sink_27,sink_19] 0
interdiction[sink_10,sink_11] 0
interdiction[sink_10,innode_2] 0
interdiction[sink_10,innode_3] 1
interdiction[innode_6,sink_25] 0
interdiction[sink_11,innode_1] 0
interdiction[sink_19,innode_2] 0
interdiction[source_3,innode_4] 0
interdiction[source_2,innode_7] 0
interdiction[sink_3,innode_8] 0
WCcheckFlow[source_1,sink_3] 39
WCcheckFlow[innode_1,sink_16] 1
WCcheckFlow[innode_6,sink_13] 13
WCcheckFlow[sink_13,sink_14] 12
WCcheckFlow[sink_14,sink_10] 11
WCcheckFlow[sink_25,sink_26] 15
WCcheckFlow[sink_26,sink_9] 1
WCcheckFlow[sink_9,sink_18] 0
WCcheckFlow[sink_26,sink_4] 13
WCcheckFlow[sink_4,sink_20] 1
WCcheckFlow[sink_18,sink_6] -1
WCcheckFlow[sink_25,innode_8] -36
WCcheckFlow[sink_6,sink_7] -4
WCcheckFlow[sink_6,sink_22] 2
WCcheckFlow[sink_7,sink_24] 3
WCcheckFlow[sink_22,sink_1] 1
WCcheckFlow[sink_24,sink_21] 2
WCcheckFlow[sink_21,sink_12] 1
WCcheckFlow[sink_7,sink_5] -8
WCcheckFlow[sink_5,sink_17] -9
WCcheckFlow[sink_17,sink_4] -11
WCcheckFlow[sink_17,sink_8] 1
WCcheckFlow[sink_3,sink_23] 1
WCcheckFlow[sink_8,sink_20] 0
WCcheckFlow[sink_25,sink_20] 0
WCcheckFlow[sink_25,sink_15] 6
WCcheckFlow[sink_15,sink_29] 5
WCcheckFlow[sink_29,sink_28] 1
WCcheckFlow[sink_29,sink_2] 1
WCcheckFlow[sink_2,sink_15] 0
WCcheckFlow[sink_29,innode_7] 2
WCcheckFlow[innode_4,sink_19] 0
WCcheckFlow[sink_19,innode_3] 1
WCcheckFlow[innode_4,innode_5] -2
WCcheckFlow[sink_27,innode_5] 3
WCcheckFlow[sink_27,sink_19] -4
WCcheckFlow[sink_10,sink_11] 3
WCcheckFlow[sink_10,innode_2] 7
WCcheckFlow[sink_10,innode_3] 0
WCcheckFlow[innode_6,sink_25] -14
WCcheckFlow[sink_11,innode_1] 2
WCcheckFlow[sink_19,innode_2] -6
WCcheckFlow[source_3,innode_4] -1
WCcheckFlow[source_2,innode_7] -1
WCcheckFlow[sink_3,innode_8] 37
